benchmark/results/graph__10-1000-0.10-02_14/graph__10-1000-0.10-02_14_QuintonOs_Benders_aux.lp
\ This file has been generated by DOcplex
\ ENCODING=ISO-8859-1
\Problem name: Quinton Bounded Benders_auxiliary_sub

Minimize
 obj: 0.001016893988 pi_nr_a0 + 0.001319577684 pi_nr_a1
      + 0.001160091701 pi_nr_a2 + 0.001096604614 pi_nr_a3
      + 0.000982317334 pi_nr_a4 + 0.002352938933 pi_nr_a5
      + 0.000781431089 pi_nr_a6 + 0.001266785439 pi_nr_a7
      + 0.001257075183 pi_nr_a8 + 0.001263597830 pi_nr_a9 + pi_p_a7_a3
      + pi_p_a2_a8 + pi_p_a0_a3 + pi_p_a5_a2 + pi_p_a7_a8 + pi_p_a9_a9
      + 163.062346458435 pi_d_a0_a1_proc_1 + 2431.668742179871 pi_d_a0_a1_proc_0
      + 159.333726882935 pi_d_a1_a0_proc_1 + 2427.940122604370 pi_d_a1_a0_proc_0
      + 154.090445518494 pi_d_a0_a2_proc_1 + 150.511629104614 pi_d_a2_a0_proc_1
      + 477.444926261902 pi_d_a0_a3_proc_1 + 2117.469178199768 pi_d_a0_a3_proc_0
      + 473.533290863037 pi_d_a3_a0_proc_1 + 2113.557542800903 pi_d_a3_a0_proc_0
      + 1153.913247108459 pi_d_a0_a4_proc_0
      + 1133.492086410522 pi_d_a4_a0_proc_0
      + 1153.796028137207 pi_d_a0_a5_proc_0
      + 1133.609305381775 pi_d_a5_a0_proc_0
      + 1419.003388404846 pi_d_a0_a6_proc_1
      + 1192.517697334290 pi_d_a0_a6_proc_0
      + 1398.484771728516 pi_d_a6_a0_proc_1
      + 1171.999080657959 pi_d_a6_a0_proc_0 + 231.548946380615 pi_d_a0_a7_proc_1
      + 2360.102937698364 pi_d_a0_a7_proc_0 + 230.899531364441 pi_d_a7_a0_proc_1
      + 2359.453522682190 pi_d_a7_a0_proc_0
      + 1149.351542472839 pi_d_a0_a8_proc_1
      + 1461.653016090393 pi_d_a0_a8_proc_0
      + 1129.349452972412 pi_d_a8_a0_proc_1
      + 1441.650926589966 pi_d_a8_a0_proc_0
      + 1274.896288871765 pi_d_a0_a9_proc_1
      + 1294.243927955627 pi_d_a0_a9_proc_0
      + 1296.758541107178 pi_d_a9_a0_proc_1
      + 1316.106180191040 pi_d_a9_a0_proc_0 + 9.975041389465 pi_d_a1_a2_proc_1
      + 8.823896408081 pi_d_a2_a1_proc_1 + 335.757277488708 pi_d_a1_a3_proc_1
      + 2261.584666252136 pi_d_a1_a3_proc_0 + 329.417802810669 pi_d_a3_a1_proc_1
      + 2255.245191574097 pi_d_a3_a1_proc_0
      + 1298.028651237488 pi_d_a1_a4_proc_0
      + 1275.179819107056 pi_d_a4_a1_proc_0
      + 1298.021759033203 pi_d_a1_a5_proc_0
      + 1275.186711311340 pi_d_a5_a1_proc_0
      + 1277.084886550903 pi_d_a1_a6_proc_1
      + 1336.402332305908 pi_d_a1_a6_proc_0
      + 1254.600136756897 pi_d_a6_a1_proc_1
      + 1313.917582511902 pi_d_a6_a1_proc_0 + 88.495091438293 pi_d_a1_a7_proc_1
      + 2502.852219581604 pi_d_a1_a7_proc_0 + 88.150249481201 pi_d_a7_a1_proc_1
      + 2502.507377624512 pi_d_a7_a1_proc_0
      + 1005.322096824646 pi_d_a1_a8_proc_1
      + 1603.426707267761 pi_d_a1_a8_proc_0 + 987.575761795044 pi_d_a8_a1_proc_1
      + 1585.680372238159 pi_d_a8_a1_proc_0
      + 1152.590651512146 pi_d_a1_a9_proc_1
      + 1457.741427421570 pi_d_a1_a9_proc_0
      + 1133.261041641235 pi_d_a9_a1_proc_1
      + 1438.411817550659 pi_d_a9_a1_proc_0 + 326.935767173767 pi_d_a2_a3_proc_1
      + 320.445314407349 pi_d_a3_a2_proc_1 + 1268.100439071655 pi_d_a2_a6_proc_1
      + 1245.790585517883 pi_d_a6_a2_proc_1 + 79.657006263733 pi_d_a2_a7_proc_1
      + 79.194335937500 pi_d_a7_a2_proc_1 + 996.436133384705 pi_d_a2_a8_proc_1
      + 978.667726516724 pi_d_a8_a2_proc_1 + 1123.432841300964 pi_d_a2_a9_proc_1
      + 1144.624853134155 pi_d_a9_a2_proc_1 + 963.558570861816 pi_d_a3_a4_proc_0
      + 981.067755699158 pi_d_a4_a3_proc_0 + 980.818359375000 pi_d_a3_a5_proc_0
      + 963.807967185974 pi_d_a5_a3_proc_0 + 1589.206390380859 pi_d_a3_a6_proc_1
      + 1019.941692352295 pi_d_a3_a6_proc_0
      + 1571.060776710510 pi_d_a6_a3_proc_1
      + 1001.796078681946 pi_d_a6_a3_proc_0 + 404.385990142822 pi_d_a3_a7_proc_1
      + 2190.160974502563 pi_d_a3_a7_proc_0 + 400.841494560242 pi_d_a7_a3_proc_1
      + 2186.616478919983 pi_d_a7_a3_proc_0
      + 1316.988836288452 pi_d_a3_a8_proc_1
      + 1286.511302947998 pi_d_a3_a8_proc_0
      + 1304.491166114807 pi_d_a8_a3_proc_1
      + 1274.013632774353 pi_d_a8_a3_proc_0
      + 1445.726029396057 pi_d_a3_a9_proc_1
      + 1122.294661521912 pi_d_a3_a9_proc_0
      + 1468.707807540894 pi_d_a9_a3_proc_1
      + 1145.276439666748 pi_d_a9_a3_proc_0 + 0.002470016479 pi_d_a4_a5_proc_0
      + 1.002469062805 pi_d_a5_a4_proc_0 + 39.205203056335 pi_d_a4_a6_proc_0
      + 38.911180496216 pi_d_a6_a4_proc_0 + 1227.346687316895 pi_d_a4_a7_proc_0
      + 1205.809378623962 pi_d_a7_a4_proc_0 + 311.567559242249 pi_d_a4_a8_proc_0
      + 305.335988998413 pi_d_a8_a4_proc_0 + 150.493782997131 pi_d_a4_a9_proc_0
      + 173.455930709839 pi_d_a9_a4_proc_0 + 40.698687553406 pi_d_a5_a6_proc_0
      + 37.417695999146 pi_d_a6_a5_proc_0 + 1227.346687316895 pi_d_a5_a7_proc_0
      + 1205.809378623962 pi_d_a7_a5_proc_0 + 311.567559242249 pi_d_a5_a8_proc_0
      + 305.335988998413 pi_d_a8_a5_proc_0 + 154.221383094788 pi_d_a5_a9_proc_0
      + 169.728330612183 pi_d_a9_a5_proc_0 + 1324.722705841064 pi_d_a6_a7_proc_1
      + 1243.987747192383 pi_d_a6_a7_proc_0
      + 1347.014721870422 pi_d_a7_a6_proc_1
      + 1266.279763221741 pi_d_a7_a6_proc_0
      + 2240.959592819214 pi_d_a6_a8_proc_1 + 343.972116470337 pi_d_a6_a8_proc_0
      + 2247.030352592468 pi_d_a8_a6_proc_1 + 350.042876243591 pi_d_a8_a6_proc_0
      + 2379.165498733521 pi_d_a6_a9_proc_1 + 189.224187850952 pi_d_a6_a9_proc_0
      + 2401.778281211853 pi_d_a9_a6_proc_1 + 211.836970329285 pi_d_a9_a6_proc_0
      + 1075.743632316589 pi_d_a7_a8_proc_1
      + 1533.795838356018 pi_d_a7_a8_proc_0
      + 1057.206630706787 pi_d_a8_a7_proc_1
      + 1515.258836746216 pi_d_a8_a7_proc_0
      + 1223.111071586609 pi_d_a7_a9_proc_1
      + 1388.209443092346 pi_d_a7_a9_proc_0
      + 1202.793025970459 pi_d_a9_a7_proc_1
      + 1367.891397476196 pi_d_a9_a7_proc_0
      + 2110.732773780823 pi_d_a8_a9_proc_1 + 459.578627586365 pi_d_a8_a9_proc_0
      + 2131.423841476440 pi_d_a9_a8_proc_1 + 480.269695281982 pi_d_a9_a8_proc_0
      + 0.117218971252 pi_y2_a0_proc_0 + 0.882780075073 pi_y2_a0_proc_1
      + 0.006870269775 pi_y2_a1_proc_0 + 0.993128776550 pi_y2_a1_proc_1
      + 0.999999046326 pi_y2_a2_proc_1 + 0.249566078186 pi_y2_a3_proc_0
      + 0.750432968140 pi_y2_a3_proc_1 + 0.999999046326 pi_y2_a4_proc_0
      + 0.999999046326 pi_y2_a5_proc_0 + 0.970226287842 pi_y2_a6_proc_0
      + 0.029772758484 pi_y2_a6_proc_1 + 0.060944557190 pi_y2_a7_proc_0
      + 0.939054489136 pi_y2_a7_proc_1 + 0.762200355530 pi_y2_a8_proc_0
      + 0.237798690796 pi_y2_a8_proc_1 + 0.875309944153 pi_y2_a9_proc_0
      + 0.124689102173 pi_y2_a9_proc_1
Subject To
 c1: 0.001047120419 pi_nr_a0 + 0.001321003963 pi_nr_a1 + 0.001160092807 pi_nr_a2
     + 0.000959692898 pi_nr_a3 + 0.000982318271 pi_nr_a4
     + 0.002352941176 pi_nr_a5 + 0.000772200772 pi_nr_a6
     + 0.001273885350 pi_nr_a7 + 0.001396648045 pi_nr_a8
     + 0.001326259947 pi_nr_a9 + pi_p_a7_a3 + pi_p_a2_a8 + pi_p_a0_a3
     + pi_p_a5_a2 + pi_p_a7_a8 + pi_p_a9_a9 + pi_d_a0_a1_proc_1
     + 2591 pi_d_a0_a1_proc_0 + 2590 pi_d_a1_a0_proc_0 + pi_d_a0_a2_proc_1
     + pi_d_a0_a3_proc_1 + 2591 pi_d_a0_a3_proc_0 + 2590 pi_d_a3_a0_proc_0
     + 1307 pi_d_a0_a4_proc_0 + 1284 pi_d_a4_a0_proc_0 + 1307 pi_d_a0_a5_proc_0
     + 1284 pi_d_a5_a0_proc_0 + 1307 pi_d_a0_a6_proc_1 + 1307 pi_d_a0_a6_proc_0
     + 1284 pi_d_a6_a0_proc_1 + 1284 pi_d_a6_a0_proc_0 + 2590 pi_d_a0_a7_proc_0
     + pi_d_a7_a0_proc_1 + 2591 pi_d_a7_a0_proc_0 + 1307 pi_d_a0_a8_proc_1
     + 1307 pi_d_a0_a8_proc_0 + 1284 pi_d_a8_a0_proc_1 + 1284 pi_d_a8_a0_proc_0
     + 1284 pi_d_a0_a9_proc_1 + 1284 pi_d_a0_a9_proc_0 + 1307 pi_d_a9_a0_proc_1
     + 1307 pi_d_a9_a0_proc_0 + pi_d_a1_a2_proc_1 + pi_d_a1_a3_proc_1
     + 2591 pi_d_a1_a3_proc_0 + 2590 pi_d_a3_a1_proc_0 + 1307 pi_d_a1_a4_proc_0
     + 1284 pi_d_a4_a1_proc_0 + 1307 pi_d_a1_a5_proc_0 + 1284 pi_d_a5_a1_proc_0
     + 1307 pi_d_a1_a6_proc_1 + 1307 pi_d_a1_a6_proc_0 + 1284 pi_d_a6_a1_proc_1
     + 1284 pi_d_a6_a1_proc_0 + 2590 pi_d_a1_a7_proc_0 + pi_d_a7_a1_proc_1
     + 2591 pi_d_a7_a1_proc_0 + 1307 pi_d_a1_a8_proc_1 + 1307 pi_d_a1_a8_proc_0
     + 1284 pi_d_a8_a1_proc_1 + 1284 pi_d_a8_a1_proc_0 + 1307 pi_d_a1_a9_proc_1
     + 1307 pi_d_a1_a9_proc_0 + 1284 pi_d_a9_a1_proc_1 + 1284 pi_d_a9_a1_proc_0
     + pi_d_a2_a3_proc_1 + 1307 pi_d_a2_a6_proc_1 + 1284 pi_d_a6_a2_proc_1
     + pi_d_a7_a2_proc_1 + 1307 pi_d_a2_a8_proc_1 + 1284 pi_d_a8_a2_proc_1
     + 1284 pi_d_a2_a9_proc_1 + 1307 pi_d_a9_a2_proc_1 + 1284 pi_d_a3_a4_proc_0
     + 1307 pi_d_a4_a3_proc_0 + 1307 pi_d_a3_a5_proc_0 + 1284 pi_d_a5_a3_proc_0
     + 1307 pi_d_a3_a6_proc_1 + 1307 pi_d_a3_a6_proc_0 + 1284 pi_d_a6_a3_proc_1
     + 1284 pi_d_a6_a3_proc_0 + 2590 pi_d_a3_a7_proc_0 + pi_d_a7_a3_proc_1
     + 2591 pi_d_a7_a3_proc_0 + 1307 pi_d_a3_a8_proc_1 + 1307 pi_d_a3_a8_proc_0
     + 1284 pi_d_a8_a3_proc_1 + 1284 pi_d_a8_a3_proc_0 + 1284 pi_d_a3_a9_proc_1
     + 1284 pi_d_a3_a9_proc_0 + 1307 pi_d_a9_a3_proc_1 + 1307 pi_d_a9_a3_proc_0
     + pi_d_a5_a4_proc_0 + pi_d_a4_a6_proc_0 + 1307 pi_d_a4_a7_proc_0
     + 1284 pi_d_a7_a4_proc_0 + pi_d_a4_a8_proc_0 - 11 pi_d_a4_a9_proc_0
     + 12 pi_d_a9_a4_proc_0 + 2 pi_d_a5_a6_proc_0 - pi_d_a6_a5_proc_0
     + 1307 pi_d_a5_a7_proc_0 + 1284 pi_d_a7_a5_proc_0 + pi_d_a5_a8_proc_0
     - 10 pi_d_a5_a9_proc_0 + 11 pi_d_a9_a5_proc_0 + 1284 pi_d_a6_a7_proc_1
     + 1284 pi_d_a6_a7_proc_0 + 1307 pi_d_a7_a6_proc_1 + 1307 pi_d_a7_a6_proc_0
     + 2590 pi_d_a6_a8_proc_1 + 2591 pi_d_a8_a6_proc_1 + pi_d_a8_a6_proc_0
     + 2579 pi_d_a6_a9_proc_1 - 11 pi_d_a6_a9_proc_0 + 2602 pi_d_a9_a6_proc_1
     + 12 pi_d_a9_a6_proc_0 + 1307 pi_d_a7_a8_proc_1 + 1307 pi_d_a7_a8_proc_0
     + 1284 pi_d_a8_a7_proc_1 + 1284 pi_d_a8_a7_proc_0 + 1307 pi_d_a7_a9_proc_1
     + 1307 pi_d_a7_a9_proc_0 + 1284 pi_d_a9_a7_proc_1 + 1284 pi_d_a9_a7_proc_0
     + 2579 pi_d_a8_a9_proc_1 - 11 pi_d_a8_a9_proc_0 + 2602 pi_d_a9_a8_proc_1
     + 12 pi_d_a9_a8_proc_0 + pi_y2_a0_proc_1 + pi_y2_a1_proc_1
     + pi_y2_a2_proc_1 + pi_y2_a3_proc_1 + pi_y2_a4_proc_0 + pi_y2_a5_proc_0
     + pi_y2_a6_proc_0 + pi_y2_a7_proc_1 + pi_y2_a8_proc_0 + pi_y2_a9_proc_0 = 
     0.000181225082
 c2: pi_nr_a0 + pi_nr_a1 + pi_nr_a2 + pi_nr_a3 + pi_nr_a4 + pi_nr_a5 + pi_nr_a6
     + pi_nr_a7 + pi_nr_a8 + pi_nr_a9 - pi_y1_a0 - pi_y1_a1 - pi_y1_a2
     - pi_y1_a3 - pi_y1_a4 - pi_y1_a5 - pi_y1_a6 - pi_y1_a7 - pi_y1_a8
     - pi_y1_a9 >= 1
 c3: - pi_p_a1_a0 + pi_p_a0_a5 + pi_p_a0_a3 + pi_d_a0_a1_proc_1
     + pi_d_a0_a1_proc_0 - pi_d_a1_a0_proc_1 - pi_d_a1_a0_proc_0
     + pi_d_a0_a2_proc_1 - pi_d_a2_a0_proc_1 + pi_d_a0_a3_proc_1
     + pi_d_a0_a3_proc_0 - pi_d_a3_a0_proc_1 - pi_d_a3_a0_proc_0
     + pi_d_a0_a4_proc_0 - pi_d_a4_a0_proc_0 + pi_d_a0_a5_proc_0
     - pi_d_a5_a0_proc_0 + pi_d_a0_a6_proc_1 + pi_d_a0_a6_proc_0
     - pi_d_a6_a0_proc_1 - pi_d_a6_a0_proc_0 + pi_d_a0_a7_proc_1
     + pi_d_a0_a7_proc_0 - pi_d_a7_a0_proc_1 - pi_d_a7_a0_proc_0
     + pi_d_a0_a8_proc_1 + pi_d_a0_a8_proc_0 - pi_d_a8_a0_proc_1
     - pi_d_a8_a0_proc_0 + pi_d_a0_a9_proc_1 + pi_d_a0_a9_proc_0
     - pi_d_a9_a0_proc_1 - pi_d_a9_a0_proc_0 >= 0
 c4: 1267 pi_p_a0_a5 + 1267 pi_p_a0_a3 + 1267 pi_d_a0_a1_proc_0
     + 1267 pi_d_a0_a3_proc_0 + 1267 pi_d_a0_a4_proc_0 + 1267 pi_d_a0_a5_proc_0
     + 1267 pi_d_a0_a6_proc_0 + 1267 pi_d_a0_a7_proc_0 + 1267 pi_d_a0_a8_proc_0
     + 1267 pi_d_a0_a9_proc_0 + pi_y1_a0 + pi_y2_a0_proc_0 >= 0
 c5: 955 pi_p_a0_a5 + 955 pi_p_a0_a3 + 955 pi_d_a0_a1_proc_1
     + 955 pi_d_a0_a2_proc_1 + 955 pi_d_a0_a3_proc_1 + 955 pi_d_a0_a6_proc_1
     + 955 pi_d_a0_a7_proc_1 + 955 pi_d_a0_a8_proc_1 + 955 pi_d_a0_a9_proc_1
     + pi_y1_a0 + pi_y2_a0_proc_1 >= 0
 c6: pi_p_a1_a0 - pi_p_a2_a1 - pi_d_a0_a1_proc_1 - pi_d_a0_a1_proc_0
     + pi_d_a1_a0_proc_1 + pi_d_a1_a0_proc_0 + pi_d_a1_a2_proc_1
     - pi_d_a2_a1_proc_1 + pi_d_a1_a3_proc_1 + pi_d_a1_a3_proc_0
     - pi_d_a3_a1_proc_1 - pi_d_a3_a1_proc_0 + pi_d_a1_a4_proc_0
     - pi_d_a4_a1_proc_0 + pi_d_a1_a5_proc_0 - pi_d_a5_a1_proc_0
     + pi_d_a1_a6_proc_1 + pi_d_a1_a6_proc_0 - pi_d_a6_a1_proc_1
     - pi_d_a6_a1_proc_0 + pi_d_a1_a7_proc_1 + pi_d_a1_a7_proc_0
     - pi_d_a7_a1_proc_1 - pi_d_a7_a1_proc_0 + pi_d_a1_a8_proc_1
     + pi_d_a1_a8_proc_0 - pi_d_a8_a1_proc_1 - pi_d_a8_a1_proc_0
     + pi_d_a1_a9_proc_1 + pi_d_a1_a9_proc_0 - pi_d_a9_a1_proc_1
     - pi_d_a9_a1_proc_0 >= 0
 c7: 898 pi_p_a1_a0 + 898 pi_d_a1_a0_proc_0 + 898 pi_d_a1_a3_proc_0
     + 898 pi_d_a1_a4_proc_0 + 898 pi_d_a1_a5_proc_0 + 898 pi_d_a1_a6_proc_0
     + 898 pi_d_a1_a7_proc_0 + 898 pi_d_a1_a8_proc_0 + 898 pi_d_a1_a9_proc_0
     + pi_y1_a1 + pi_y2_a1_proc_0 >= 0
 c8: 757 pi_p_a1_a0 + 757 pi_d_a1_a0_proc_1 + 757 pi_d_a1_a2_proc_1
     + 757 pi_d_a1_a3_proc_1 + 757 pi_d_a1_a6_proc_1 + 757 pi_d_a1_a7_proc_1
     + 757 pi_d_a1_a8_proc_1 + 757 pi_d_a1_a9_proc_1 + pi_y1_a1
     + pi_y2_a1_proc_1 >= 0
 c9: pi_p_a2_a1 - pi_p_a3_a2 - pi_p_a4_a2 + pi_p_a2_a8 - pi_p_a5_a2
     - pi_d_a0_a2_proc_1 + pi_d_a2_a0_proc_1 - pi_d_a1_a2_proc_1
     + pi_d_a2_a1_proc_1 + pi_d_a2_a3_proc_1 - pi_d_a3_a2_proc_1
     + pi_d_a2_a6_proc_1 - pi_d_a6_a2_proc_1 + pi_d_a2_a7_proc_1
     - pi_d_a7_a2_proc_1 + pi_d_a2_a8_proc_1 - pi_d_a8_a2_proc_1
     + pi_d_a2_a9_proc_1 - pi_d_a9_a2_proc_1 >= 0
 c10: 862 pi_p_a2_a1 + 862 pi_p_a2_a8 + 862 pi_d_a2_a0_proc_1
      + 862 pi_d_a2_a1_proc_1 + 862 pi_d_a2_a3_proc_1 + 862 pi_d_a2_a6_proc_1
      + 862 pi_d_a2_a7_proc_1 + 862 pi_d_a2_a8_proc_1 + 862 pi_d_a2_a9_proc_1
      + pi_y1_a2 + pi_y2_a2_proc_1 >= 0
 c11: pi_p_a3_a2 - pi_p_a7_a3 - pi_p_a0_a3 + pi_p_a3_a7 - pi_d_a0_a3_proc_1
      - pi_d_a0_a3_proc_0 + pi_d_a3_a0_proc_1 + pi_d_a3_a0_proc_0
      - pi_d_a1_a3_proc_1 - pi_d_a1_a3_proc_0 + pi_d_a3_a1_proc_1
      + pi_d_a3_a1_proc_0 - pi_d_a2_a3_proc_1 + pi_d_a3_a2_proc_1
      + pi_d_a3_a4_proc_0 - pi_d_a4_a3_proc_0 + pi_d_a3_a5_proc_0
      - pi_d_a5_a3_proc_0 + pi_d_a3_a6_proc_1 + pi_d_a3_a6_proc_0
      - pi_d_a6_a3_proc_1 - pi_d_a6_a3_proc_0 + pi_d_a3_a7_proc_1
      + pi_d_a3_a7_proc_0 - pi_d_a7_a3_proc_1 - pi_d_a7_a3_proc_0
      + pi_d_a3_a8_proc_1 + pi_d_a3_a8_proc_0 - pi_d_a8_a3_proc_1
      - pi_d_a8_a3_proc_0 + pi_d_a3_a9_proc_1 + pi_d_a3_a9_proc_0
      - pi_d_a9_a3_proc_1 - pi_d_a9_a3_proc_0 >= 0
 c12: 663 pi_p_a3_a2 + 663 pi_p_a3_a7 + 663 pi_d_a3_a0_proc_0
      + 663 pi_d_a3_a1_proc_0 + 663 pi_d_a3_a4_proc_0 + 663 pi_d_a3_a5_proc_0
      + 663 pi_d_a3_a6_proc_0 + 663 pi_d_a3_a7_proc_0 + 663 pi_d_a3_a8_proc_0
      + 663 pi_d_a3_a9_proc_0 + pi_y1_a3 + pi_y2_a3_proc_0 >= 0
 c13: 1042 pi_p_a3_a2 + 1042 pi_p_a3_a7 + 1042 pi_d_a3_a0_proc_1
      + 1042 pi_d_a3_a1_proc_1 + 1042 pi_d_a3_a2_proc_1 + 1042 pi_d_a3_a6_proc_1
      + 1042 pi_d_a3_a7_proc_1 + 1042 pi_d_a3_a8_proc_1 + 1042 pi_d_a3_a9_proc_1
      + pi_y1_a3 + pi_y2_a3_proc_1 >= 0
 c14: pi_p_a4_a2 - pi_p_a6_a4 - pi_p_a8_a4 - pi_d_a0_a4_proc_0
      + pi_d_a4_a0_proc_0 - pi_d_a1_a4_proc_0 + pi_d_a4_a1_proc_0
      - pi_d_a3_a4_proc_0 + pi_d_a4_a3_proc_0 + pi_d_a4_a5_proc_0
      - pi_d_a5_a4_proc_0 + pi_d_a4_a6_proc_0 - pi_d_a6_a4_proc_0
      + pi_d_a4_a7_proc_0 - pi_d_a7_a4_proc_0 + pi_d_a4_a8_proc_0
      - pi_d_a8_a4_proc_0 + pi_d_a4_a9_proc_0 - pi_d_a9_a4_proc_0 >= 0
 c15: 1018 pi_p_a4_a2 + 1018 pi_d_a4_a0_proc_0 + 1018 pi_d_a4_a1_proc_0
      + 1018 pi_d_a4_a3_proc_0 + 1018 pi_d_a4_a5_proc_0 + 1018 pi_d_a4_a6_proc_0
      + 1018 pi_d_a4_a7_proc_0 + 1018 pi_d_a4_a8_proc_0 + 1018 pi_d_a4_a9_proc_0
      + pi_y1_a4 + pi_y2_a4_proc_0 >= 0
 c16: - pi_p_a0_a5 - pi_p_a6_a5 + pi_p_a5_a7 + pi_p_a5_a2 - pi_d_a0_a5_proc_0
      + pi_d_a5_a0_proc_0 - pi_d_a1_a5_proc_0 + pi_d_a5_a1_proc_0
      - pi_d_a3_a5_proc_0 + pi_d_a5_a3_proc_0 - pi_d_a4_a5_proc_0
      + pi_d_a5_a4_proc_0 + pi_d_a5_a6_proc_0 - pi_d_a6_a5_proc_0
      + pi_d_a5_a7_proc_0 - pi_d_a7_a5_proc_0 + pi_d_a5_a8_proc_0
      - pi_d_a8_a5_proc_0 + pi_d_a5_a9_proc_0 - pi_d_a9_a5_proc_0 >= 0
 c17: 425 pi_p_a5_a7 + 425 pi_p_a5_a2 + 425 pi_d_a5_a0_proc_0
      + 425 pi_d_a5_a1_proc_0 + 425 pi_d_a5_a3_proc_0 + 425 pi_d_a5_a4_proc_0
      + 425 pi_d_a5_a6_proc_0 + 425 pi_d_a5_a7_proc_0 + 425 pi_d_a5_a8_proc_0
      + 425 pi_d_a5_a9_proc_0 + pi_y1_a5 + pi_y2_a5_proc_0 >= 0
 c18: pi_p_a6_a5 + pi_p_a6_a8 + pi_p_a6_a4 - pi_d_a0_a6_proc_1
      - pi_d_a0_a6_proc_0 + pi_d_a6_a0_proc_1 + pi_d_a6_a0_proc_0
      - pi_d_a1_a6_proc_1 - pi_d_a1_a6_proc_0 + pi_d_a6_a1_proc_1
      + pi_d_a6_a1_proc_0 - pi_d_a2_a6_proc_1 + pi_d_a6_a2_proc_1
      - pi_d_a3_a6_proc_1 - pi_d_a3_a6_proc_0 + pi_d_a6_a3_proc_1
      + pi_d_a6_a3_proc_0 - pi_d_a4_a6_proc_0 + pi_d_a6_a4_proc_0
      - pi_d_a5_a6_proc_0 + pi_d_a6_a5_proc_0 + pi_d_a6_a7_proc_1
      + pi_d_a6_a7_proc_0 - pi_d_a7_a6_proc_1 - pi_d_a7_a6_proc_0
      + pi_d_a6_a8_proc_1 + pi_d_a6_a8_proc_0 - pi_d_a8_a6_proc_1
      - pi_d_a8_a6_proc_0 + pi_d_a6_a9_proc_1 + pi_d_a6_a9_proc_0
      - pi_d_a9_a6_proc_1 - pi_d_a9_a6_proc_0 >= 0
 c19: 1295 pi_p_a6_a5 + 1295 pi_p_a6_a8 + 1295 pi_p_a6_a4
      + 1295 pi_d_a6_a0_proc_0 + 1295 pi_d_a6_a1_proc_0 + 1295 pi_d_a6_a3_proc_0
      + 1295 pi_d_a6_a4_proc_0 + 1295 pi_d_a6_a5_proc_0 + 1295 pi_d_a6_a7_proc_0
      + 1295 pi_d_a6_a8_proc_0 + 1295 pi_d_a6_a9_proc_0 + pi_y1_a6
      + pi_y2_a6_proc_0 >= 0
 c20: 924 pi_p_a6_a5 + 924 pi_p_a6_a8 + 924 pi_p_a6_a4 + 924 pi_d_a6_a0_proc_1
      + 924 pi_d_a6_a1_proc_1 + 924 pi_d_a6_a2_proc_1 + 924 pi_d_a6_a3_proc_1
      + 924 pi_d_a6_a7_proc_1 + 924 pi_d_a6_a8_proc_1 + 924 pi_d_a6_a9_proc_1
      + pi_y1_a6 + pi_y2_a6_proc_1 >= 0
 c21: pi_p_a7_a3 - pi_p_a5_a7 - pi_p_a3_a7 + pi_p_a7_a8 - pi_d_a0_a7_proc_1
      - pi_d_a0_a7_proc_0 + pi_d_a7_a0_proc_1 + pi_d_a7_a0_proc_0
      - pi_d_a1_a7_proc_1 - pi_d_a1_a7_proc_0 + pi_d_a7_a1_proc_1
      + pi_d_a7_a1_proc_0 - pi_d_a2_a7_proc_1 + pi_d_a7_a2_proc_1
      - pi_d_a3_a7_proc_1 - pi_d_a3_a7_proc_0 + pi_d_a7_a3_proc_1
      + pi_d_a7_a3_proc_0 - pi_d_a4_a7_proc_0 + pi_d_a7_a4_proc_0
      - pi_d_a5_a7_proc_0 + pi_d_a7_a5_proc_0 - pi_d_a6_a7_proc_1
      - pi_d_a6_a7_proc_0 + pi_d_a7_a6_proc_1 + pi_d_a7_a6_proc_0
      + pi_d_a7_a8_proc_1 + pi_d_a7_a8_proc_0 - pi_d_a8_a7_proc_1
      - pi_d_a8_a7_proc_0 + pi_d_a7_a9_proc_1 + pi_d_a7_a9_proc_0
      - pi_d_a9_a7_proc_1 - pi_d_a9_a7_proc_0 >= 0
 c22: 864 pi_p_a7_a3 + 864 pi_p_a7_a8 + 864 pi_d_a7_a0_proc_0
      + 864 pi_d_a7_a1_proc_0 + 864 pi_d_a7_a3_proc_0 + 864 pi_d_a7_a4_proc_0
      + 864 pi_d_a7_a5_proc_0 + 864 pi_d_a7_a6_proc_0 + 864 pi_d_a7_a8_proc_0
      + 864 pi_d_a7_a9_proc_0 + pi_y1_a7 + pi_y2_a7_proc_0 >= 0
 c23: 785 pi_p_a7_a3 + 785 pi_p_a7_a8 + 785 pi_d_a7_a0_proc_1
      + 785 pi_d_a7_a1_proc_1 + 785 pi_d_a7_a2_proc_1 + 785 pi_d_a7_a3_proc_1
      + 785 pi_d_a7_a6_proc_1 + 785 pi_d_a7_a8_proc_1 + 785 pi_d_a7_a9_proc_1
      + pi_y1_a7 + pi_y2_a7_proc_1 >= 0
 c24: - pi_p_a6_a8 + pi_p_a8_a9 + pi_p_a8_a4 - pi_p_a2_a8 - pi_p_a7_a8
      - pi_d_a0_a8_proc_1 - pi_d_a0_a8_proc_0 + pi_d_a8_a0_proc_1
      + pi_d_a8_a0_proc_0 - pi_d_a1_a8_proc_1 - pi_d_a1_a8_proc_0
      + pi_d_a8_a1_proc_1 + pi_d_a8_a1_proc_0 - pi_d_a2_a8_proc_1
      + pi_d_a8_a2_proc_1 - pi_d_a3_a8_proc_1 - pi_d_a3_a8_proc_0
      + pi_d_a8_a3_proc_1 + pi_d_a8_a3_proc_0 - pi_d_a4_a8_proc_0
      + pi_d_a8_a4_proc_0 - pi_d_a5_a8_proc_0 + pi_d_a8_a5_proc_0
      - pi_d_a6_a8_proc_1 - pi_d_a6_a8_proc_0 + pi_d_a8_a6_proc_1
      + pi_d_a8_a6_proc_0 - pi_d_a7_a8_proc_1 - pi_d_a7_a8_proc_0
      + pi_d_a8_a7_proc_1 + pi_d_a8_a7_proc_0 + pi_d_a8_a9_proc_1
      + pi_d_a8_a9_proc_0 - pi_d_a9_a8_proc_1 - pi_d_a9_a8_proc_0 >= 0
 c25: 716 pi_p_a8_a9 + 716 pi_p_a8_a4 + 716 pi_d_a8_a0_proc_0
      + 716 pi_d_a8_a1_proc_0 + 716 pi_d_a8_a3_proc_0 + 716 pi_d_a8_a4_proc_0
      + 716 pi_d_a8_a5_proc_0 + 716 pi_d_a8_a6_proc_0 + 716 pi_d_a8_a7_proc_0
      + 716 pi_d_a8_a9_proc_0 + pi_y1_a8 + pi_y2_a8_proc_0 >= 0
 c26: 1235 pi_p_a8_a9 + 1235 pi_p_a8_a4 + 1235 pi_d_a8_a0_proc_1
      + 1235 pi_d_a8_a1_proc_1 + 1235 pi_d_a8_a2_proc_1 + 1235 pi_d_a8_a3_proc_1
      + 1235 pi_d_a8_a6_proc_1 + 1235 pi_d_a8_a7_proc_1 + 1235 pi_d_a8_a9_proc_1
      + pi_y1_a8 + pi_y2_a8_proc_1 >= 0
 c27: - pi_p_a8_a9 - pi_d_a0_a9_proc_1 - pi_d_a0_a9_proc_0 + pi_d_a9_a0_proc_1
      + pi_d_a9_a0_proc_0 - pi_d_a1_a9_proc_1 - pi_d_a1_a9_proc_0
      + pi_d_a9_a1_proc_1 + pi_d_a9_a1_proc_0 - pi_d_a2_a9_proc_1
      + pi_d_a9_a2_proc_1 - pi_d_a3_a9_proc_1 - pi_d_a3_a9_proc_0
      + pi_d_a9_a3_proc_1 + pi_d_a9_a3_proc_0 - pi_d_a4_a9_proc_0
      + pi_d_a9_a4_proc_0 - pi_d_a5_a9_proc_0 + pi_d_a9_a5_proc_0
      - pi_d_a6_a9_proc_1 - pi_d_a6_a9_proc_0 + pi_d_a9_a6_proc_1
      + pi_d_a9_a6_proc_0 - pi_d_a7_a9_proc_1 - pi_d_a7_a9_proc_0
      + pi_d_a9_a7_proc_1 + pi_d_a9_a7_proc_0 - pi_d_a8_a9_proc_1
      - pi_d_a8_a9_proc_0 + pi_d_a9_a8_proc_1 + pi_d_a9_a8_proc_0 >= 0
 c28: 754 pi_p_a9_a9 + 754 pi_d_a9_a0_proc_0 + 754 pi_d_a9_a1_proc_0
      + 754 pi_d_a9_a3_proc_0 + 754 pi_d_a9_a4_proc_0 + 754 pi_d_a9_a5_proc_0
      + 754 pi_d_a9_a6_proc_0 + 754 pi_d_a9_a7_proc_0 + 754 pi_d_a9_a8_proc_0
      + pi_y1_a9 + pi_y2_a9_proc_0 >= 0
 c29: 1214 pi_p_a9_a9 + 1214 pi_d_a9_a0_proc_1 + 1214 pi_d_a9_a1_proc_1
      + 1214 pi_d_a9_a2_proc_1 + 1214 pi_d_a9_a3_proc_1 + 1214 pi_d_a9_a6_proc_1
      + 1214 pi_d_a9_a7_proc_1 + 1214 pi_d_a9_a8_proc_1 + pi_y1_a9
      + pi_y2_a9_proc_1 >= 0

Bounds
       pi_y1_a0 Free
       pi_y1_a1 Free
       pi_y1_a2 Free
       pi_y1_a3 Free
       pi_y1_a4 Free
       pi_y1_a5 Free
       pi_y1_a6 Free
       pi_y1_a7 Free
       pi_y1_a8 Free
       pi_y1_a9 Free
End
