benchmark/results/graph__10-1000-0.10-02_14/graph__10-1000-0.10-02_14_QuintonOs_Benders_aux.txt
solution for: Quinton Bounded Benders_auxiliary_sub
objective: 0.000181225
status: OPTIMAL_SOLUTION(2)
pi_p_a1_a0=0.000
pi_p_a2_a1=0.000
pi_p_a4_a2=0.000
pi_p_a0_a5=0.000
pi_p_a8_a4=0.000
pi_p_a5_a7=0.000
pi_p_a7_a8=0.000
pi_y1_a0=-0.173
pi_y1_a1=-0.137
pi_y1_a2=-0.156
pi_y1_a4=-0.184
pi_y1_a5=-0.077
pi_y1_a7=-0.142
pi_y1_a8=-0.130
